30
1 0 56
2 0 62
2 1 45
3 1 76
3 2 16
4 0 14
4 2 50
4 3 30
5 0 67
5 1 60
5 2 48
5 3 72
5 4 15
6 0 36
6 1 14
6 2 63
6 3 76
6 4 22
6 5 41
7 0 67
7 1 77
7 2 54
7 3 6
7 4 37
7 5 65
7 6 41
8 0 34
8 1 7
8 2 30
8 3 42
8 4 10
8 5 18
8 6 14
8 7 49
9 0 63
9 1 43
9 2 79
9 3 68
9 4 46
9 5 10
9 6 57
9 7 41
9 8 33
10 0 18
10 1 35
10 2 21
10 3 64
10 6 14
10 7 27
10 8 2
10 9 48
11 0 59
11 1 47
11 2 14
11 3 74
11 4 48
11 5 34
11 6 17
11 7 14
11 8 72
11 9 18
11 10 71
12 0 74
12 1 68
12 2 52
12 3 45
12 5 50
12 6 31
12 7 6
12 9 74
12 10 12
13 0 66
13 1 39
13 2 10
13 3 46
13 4 2
13 5 12
13 6 52
13 7 14
13 8 47
13 9 72
13 10 43
13 11 13
13 12 68
14 0 14
14 2 3
14 3 16
14 4 71
14 5 28
14 6 77
14 7 77
14 8 76
14 9 9
14 10 25
14 11 53
14 13 63
15 0 45
15 1 80
15 2 59
15 3 31
15 4 48
15 5 49
15 6 22
15 7 67
15 8 22
15 9 29
15 10 39
15 11 50
15 12 74
15 13 1
15 14 3
16 0 27
16 1 22
16 2 72
16 3 29
16 4 69
16 5 69
16 6 62
16 7 49
16 9 17
16 10 67
16 11 11
16 12 71
16 13 76
16 14 6
16 15 33
17 0 30
17 1 69
17 2 59
17 4 78
17 6 41
17 7 31
17 8 70
17 9 7
17 10 66
17 11 30
17 12 32
17 14 23
17 15 53
17 16 17
18 1 23
18 2 20
18 3 60
18 4 5
18 5 31
18 6 46
18 7 5
18 8 44
18 9 25
18 10 35
18 11 14
18 12 39
18 13 52
18 14 9
18 15 60
18 16 12
18 17 29
19 0 56
19 1 51
19 2 38
19 3 3
19 5 36
19 6 55
19 7 35
19 8 20
19 9 17
19 10 21
19 11 65
19 12 51
19 13 18
19 14 79
19 15 61
19 17 73
19 18 58
20 0 35
20 1 74
20 3 51
20 4 63
20 5 27
20 7 32
20 8 12
20 9 67
20 10 55
20 12 43
20 13 66
20 14 11
20 15 24
20 16 4
20 17 30
20 18 45
20 19 28
21 0 11
21 1 61
21 2 3
21 3 49
21 4 62
21 5 3
21 6 60
21 7 18
21 8 2
21 10 25
21 11 41
21 12 80
21 13 78
21 14 66
21 15 17
21 16 56
21 17 55
21 18 35
21 19 51
21 20 68
22 0 51
22 1 54
22 2 10
22 3 59
22 4 6
22 5 61
22 7 36
22 8 67
22 9 53
22 10 61
22 11 74
22 12 76
22 13 35
22 14 41
22 15 37
22 16 69
22 18 48
22 19 51
22 20 66
22 21 11
23 0 6
23 1 33
23 2 44
23 3 22
23 4 61
23 5 41
23 6 57
23 7 79
23 8 31
23 9 48
23 10 48
23 11 28
23 13 45
23 14 72
23 15 21
23 16 21
23 17 38
23 18 62
23 19 29
23 20 75
23 21 4
23 22 4
24 1 54
24 2 78
24 3 74
24 4 27
24 5 28
24 6 37
24 7 14
24 8 18
24 9 9
24 10 29
24 12 29
24 13 45
24 14 54
24 15 34
24 16 72
24 17 73
24 18 77
24 19 68
24 20 68
24 21 70
24 23 22
25 0 72
25 1 67
25 2 17
25 4 31
25 5 46
25 6 61
25 7 19
25 8 47
25 10 72
25 11 71
25 12 23
25 13 30
25 14 36
25 15 11
25 16 70
25 17 75
25 18 38
25 19 63
25 20 43
25 21 25
25 22 38
25 23 22
25 24 10
26 1 29
26 2 30
26 3 70
26 5 9
26 6 17
26 7 30
26 8 35
26 9 15
26 10 10
26 13 17
26 14 53
26 15 25
26 16 12
26 17 13
26 18 53
26 19 5
26 21 21
26 23 25
26 24 42
26 25 55
27 0 5
27 1 30
27 2 66
27 3 38
27 4 39
27 5 16
27 6 13
27 7 13
27 8 21
27 9 25
27 10 16
27 11 14
27 12 55
27 13 7
27 14 59
27 16 21
27 17 61
27 18 80
27 19 29
27 20 44
27 21 79
27 22 47
27 23 55
27 24 20
27 25 42
28 0 32
28 1 28
28 2 50
28 3 13
28 4 71
28 5 19
28 6 35
28 7 21
28 8 29
28 9 16
28 10 30
28 11 36
28 12 20
28 13 63
28 14 54
28 15 46
28 16 37
28 17 21
28 18 26
28 19 45
28 20 13
28 21 54
28 22 34
28 23 35
28 24 65
28 25 7
28 26 4
28 27 43
29 0 70
29 1 25
29 2 52
29 3 32
29 4 49
29 5 76
29 6 80
29 7 57
29 8 67
29 9 9
29 10 14
29 11 72
29 13 14
29 14 58
29 15 19
29 16 66
29 18 44
29 19 37
29 20 35
29 21 57
29 24 9
29 25 47
29 26 23
29 27 36
29 28 44
